&GLOBAL
PROJECT path.b3lyp.testing
SEED 1561
PRINT_LEVEL LOW
PROGRAM CP2K
RUN_TYPE MD
&END GLOBAL

&FORCE_EVAL
METHOD Quickstep
&DFT
CHARGE 0
!BASIS_SET_FILE_NAME gth_basis_sets
BASIS_SET_FILE_NAME EMSL_BASIS_SETS
POTENTIAL_FILE_NAME gth_potentials
&MGRID
CUTOFF 280
REL_CUTOFF 40
&END MGRID
&XC
&XC_FUNCTIONAL B3LYP
&END XC_FUNCTIONAL
&HF
&SCREENING
EPS_SCHWARZ 1.0E-10
&END SCREENING
&MEMORY
MAX_MEMORY 5
&END MEMORY
&END HF
&END XC
&QS
METHOD GAPW
EPS_DEFAULT 1.0E-12
WF_INTERPOLATION PS
&END QS
&POISSON
PERIODIC NONE
PSOLVER MT
&END POISSON
&SCF
MAX_SCF 50
&OT ON
MINIMIZER DIIS
&END OT
&PRINT
&RESTART OFF
&END
&END
&END SCF
&END DFT
&SUBSYS
&CELL
ABC 7 7 7
PERIODIC NONE
&END CELL

&KIND H
BASIS_SET aug-cc-pVDZ
POTENTIAL GTH-BLYP-q1
&END KIND
&KIND C
BASIS_SET aug-cc-pVDZ
POTENTIAL GTH-BLYP-q4
&END KIND
&KIND N
BASIS_SET aug-cc-pVDZ
POTENTIAL GTH-BLYP-q5
&END KIND
&KIND O
BASIS_SET aug-cc-pVDZ
POTENTIAL GTH-BLYP-q6
&END KIND
&KIND Si
BASIS_SET aug-cc-pVDZ
POTENTIAL GTH-BLYP-q4
&END KIND
&KIND P
BASIS_SET aug-cc-pVDZ
POTENTIAL GTH-BLYP-q5
&END KIND
&KIND S
BASIS_SET aug-cc-pVDZ
POTENTIAL GTH-BLYP-q6
&END KIND
&COLVAR
&DISTANCE
ATOMS 4 8
&END
&END

&COLVAR
&DISTANCE
ATOMS 5 8
&END
&END

&TOPOLOGY
COORD_FILE_NAME ../coor/malo.pdb
COORDINATE pdb
CONN_FILE_FORMAT OFF
PARA_RES OFF
&END TOPOLOGY
&END SUBSYS
&END FORCE_EVAL

&MOTION
&MD
ENSEMBLE NVT
STEPS 20
TIMESTEP 0.1
TEMPERATURE 1
COMVEL_TOL 0.001
ANGVEL_TOL 0.001
ANGVEL_ZERO
&THERMOSTAT
TYPE CSVR
&CSVR
TIMECON 0.1
&END CSVR
&END THERMOSTAT
&END MD
&PRINT
&TRAJECTORY
FILENAME =path.b3lyp.testing
FORMAT XYZ
&END TRAJECTORY

&STRUCTURE_DATA
DISTANCE 4 8
DISTANCE 5 8
FILENAME =path.b3lyp.testing
&END STRUCTURE_DATA
&END

&END MOTION
