&GLOBAL
PROJECT path.dftb.testing
SEED 1561
PRINT_LEVEL LOW
PROGRAM CP2K
RUN_TYPE MD
&END GLOBAL

&FORCE_EVAL
METHOD Quickstep
&DFT
CHARGE 0

&QS
METHOD DFTB

      &DFTB
        SELF_CONSISTENT    T
        DO_EWALD           F
        DISPERSION         F
        &PARAMETER
          PARAM_FILE_PATH  ref/scc
          PARAM_FILE_NAME  scc_parameter
          UFF_FORCE_FIELD  ref/uff_table
        &END PARAMETER
      &END DFTB

&END QS

&POISSON
PERIODIC NONE
PSOLVER MT
&END POISSON

&SCF
MAX_SCF 50
SCF_GUESS CORE

&PRINT
&RESTART OFF
&END

&END
&END SCF
&END DFT

&SUBSYS
&CELL
ABC 7 7 7
PERIODIC NONE
&END CELL

&COLVAR
&DISTANCE
ATOMS 4 8
&END
&END

&COLVAR
&DISTANCE
ATOMS 5 8
&END
&END

&TOPOLOGY
COORD_FILE_NAME coor/malo.pdb
COORDINATE pdb
CONN_FILE_FORMAT OFF
PARA_RES OFF
&END TOPOLOGY
&END SUBSYS
&END FORCE_EVAL

&MOTION
&MD
ENSEMBLE NVT
STEPS 10
TIMESTEP 0.1
TEMPERATURE 300
COMVEL_TOL 0.001
ANGVEL_TOL 0.001
ANGVEL_ZERO
&THERMOSTAT
TYPE CSVR
&CSVR
TIMECON 0.1
&END CSVR
&END THERMOSTAT
&END MD
&PRINT
&TRAJECTORY
FILENAME =path.dftb.testing.xyz
FORMAT XYZ
&EACH
MD 10
&END
&END TRAJECTORY

&STRUCTURE_DATA
DISTANCE 4 8
DISTANCE 5 8
FILENAME =path.dftb.testing.xvg
&EACH
MD 10
&END
&END STRUCTURE_DATA
&END

&END MOTION
