&GLOBAL
PROJECT __project__
SEED __seed__
PRINT_LEVEL LOW
PROGRAM CP2K
RUN_TYPE __run_type__
&END GLOBAL

&FORCE_EVAL
METHOD Quickstep
&DFT
CHARGE __charge__
MULTIPLICITY 1
WFN_RESTART_FILE_NAME __wfn_restart_file_name__
&QS
METHOD __se_method__
&SE
PERIODIC EWALD
INTEGRAL_SCREENING KDSO-D
&COULOMB
 CUTOFF   6.0
&END
&END SE
&END QS
&SCF
MAX_SCF __max_scf__
#      &DIAGONALIZATION T
#          ALGORITHM STANDARD
#          EPS_JACOBI   1.E-1
#          JACOBI_THRESHOLD   1.E-7
#      &END DIAGONALIZATION
SCF_GUESS RESTART
EPS_SCF 0.00005
&OUTER_SCF
EPS_SCF 0.00005
&END
&OT
PRECONDITIONER FULL_ALL
MINIMIZER DIIS
N_DIIS 7
&END OT
&END SCF
    &POISSON
      &EWALD
        EWALD_TYPE EWALD
        ALPHA  0.5
        GMAX 21 21 21
        &MULTIPOLES
           MAX_MULTIPOLE_EXPANSION QUADRUPOLE
        &END
      &END EWALD
    &END POISSON
&END DFT
&SUBSYS
&CELL
ABC __lbox1__ __lbox2__ __lbox3__
#PERIODIC __periodic__
&END CELL

__colvar__

&TOPOLOGY
COORD_FILE_NAME __coord_file_name__
COORD_FILE_FORMAT __coord_file_format__
CONN_FILE_FORMAT OFF
PARA_RES OFF
&END TOPOLOGY
&END SUBSYS
&END FORCE_EVAL

&MOTION
&MD
ENSEMBLE NVT
STEPS __steps__
TIMESTEP __timestep__
TEMPERATURE __temperature__
COMVEL_TOL 0.001
ANGVEL_TOL 0.001
ANGVEL_ZERO
&THERMOSTAT
TYPE CSVR
&CSVR
TIMECON __timecon__
&END CSVR
&END THERMOSTAT
&END MD
&PRINT
&TRAJECTORY
FILENAME =__project__.xyz
FORMAT XYZ
&EACH
MD __steps__
&END
&END TRAJECTORY

&STRUCTURE_DATA
__structure_data__
FILENAME =__project__.coll
&EACH
MD 1
&END
&END STRUCTURE_DATA
&END

__constraints__

&END MOTION
